




Route 1 : 65 83 57 86 59 75 87 52 99 82 53 10 11 12 14 47 17 16 15 13 9 74 77 58 97 60 4 100 55 68 
Route 2 : 69 98 88 78 73 79 7 8 6 2 46 45 5 3 1 70 61 42 44 43 40 36 35 37 38 39 41 72 54 81 96 93 50 34 26 32 56 91 80 
Route 3 : 64 33 30 28 27 29 31 62 67 71 94 92 95 84 51 85 63 76 89 18 48 21 23 25 19 49 20 22 24 66 90 
